20180305 67200.00 67100.00
20180110 67283.18 67124.85
20170630 67341.65 67124.85
20170410 67341.65 67124.85
20170124 67341.65 67123.05
20161025 67341.65 67107.30
20151231 67403.21 67107.30
20150918 67403.21 67107.30
